(set-logic HORN)
(declare-datatypes ((Nat_1 0)) (((Z_0 ) (S_0 (unS_0 Nat_1)))))
(declare-fun diseqNat_0 (Nat_1 Nat_1) Bool)
(declare-fun unS_1 (Nat_1 Nat_1) Bool)
(declare-fun isZ_0 (Nat_1) Bool)
(declare-fun isS_0 (Nat_1) Bool)
(assert (forall ((x_143 Nat_1) (x_142 Nat_1))
	(=> (= x_143 (S_0 x_142))
	    (unS_1 x_142 x_143))))
(assert (isZ_0 Z_0))
(assert (forall ((x_144 Nat_1))
	(isS_0 (S_0 x_144))))
(assert (forall ((x_145 Nat_1))
	(diseqNat_0 Z_0 (S_0 x_145))))
(assert (forall ((x_146 Nat_1))
	(diseqNat_0 (S_0 x_146) Z_0)))
(assert (forall ((x_147 Nat_1) (x_148 Nat_1))
	(=> (diseqNat_0 x_147 x_148)
	    (diseqNat_0 (S_0 x_147) (S_0 x_148)))))
(declare-fun add_0 (Nat_1 Nat_1 Nat_1) Bool)
(declare-fun minus_0 (Nat_1 Nat_1 Nat_1) Bool)
(declare-fun le_0 (Nat_1 Nat_1) Bool)
(declare-fun ge_0 (Nat_1 Nat_1) Bool)
(declare-fun lt_0 (Nat_1 Nat_1) Bool)
(declare-fun gt_0 (Nat_1 Nat_1) Bool)
(declare-fun mult_0 (Nat_1 Nat_1 Nat_1) Bool)
(declare-fun div_0 (Nat_1 Nat_1 Nat_1) Bool)
(declare-fun mod_0 (Nat_1 Nat_1 Nat_1) Bool)
(assert (forall ((y_11 Nat_1))
	(add_0 y_11 Z_0 y_11)))
(assert (forall ((x_140 Nat_1) (y_11 Nat_1) (r_0 Nat_1))
	(=> (add_0 r_0 x_140 y_11)
	    (add_0 (S_0 r_0) (S_0 x_140) y_11))))
(assert (forall ((y_11 Nat_1))
	(minus_0 Z_0 Z_0 y_11)))
(assert (forall ((x_140 Nat_1) (y_11 Nat_1) (r_0 Nat_1))
	(=> (minus_0 r_0 x_140 y_11)
	    (minus_0 (S_0 r_0) (S_0 x_140) y_11))))
(assert (forall ((y_11 Nat_1))
	(le_0 Z_0 y_11)))
(assert (forall ((x_140 Nat_1) (y_11 Nat_1))
	(=> (le_0 x_140 y_11)
	    (le_0 (S_0 x_140) (S_0 y_11)))))
(assert (forall ((y_11 Nat_1))
	(ge_0 y_11 Z_0)))
(assert (forall ((x_140 Nat_1) (y_11 Nat_1))
	(=> (ge_0 x_140 y_11)
	    (ge_0 (S_0 x_140) (S_0 y_11)))))
(assert (forall ((y_11 Nat_1))
	(lt_0 Z_0 (S_0 y_11))))
(assert (forall ((x_140 Nat_1) (y_11 Nat_1))
	(=> (lt_0 x_140 y_11)
	    (lt_0 (S_0 x_140) (S_0 y_11)))))
(assert (forall ((y_11 Nat_1))
	(gt_0 (S_0 y_11) Z_0)))
(assert (forall ((x_140 Nat_1) (y_11 Nat_1))
	(=> (gt_0 x_140 y_11)
	    (gt_0 (S_0 x_140) (S_0 y_11)))))
(assert (forall ((y_11 Nat_1))
	(mult_0 Z_0 Z_0 y_11)))
(assert (forall ((x_140 Nat_1) (y_11 Nat_1) (r_0 Nat_1) (z_9 Nat_1))
	(=>	(and (mult_0 r_0 x_140 y_11)
			(add_0 z_9 r_0 y_11))
		(mult_0 z_9 (S_0 x_140) y_11))))
(assert (forall ((x_140 Nat_1) (y_11 Nat_1))
	(=> (lt_0 x_140 y_11)
	    (div_0 Z_0 x_140 y_11))))
(assert (forall ((x_140 Nat_1) (y_11 Nat_1) (r_0 Nat_1) (z_9 Nat_1))
	(=>	(and (ge_0 x_140 y_11)
			(minus_0 z_9 x_140 y_11)
			(div_0 r_0 z_9 y_11))
		(div_0 (S_0 r_0) x_140 y_11))))
(assert (forall ((x_140 Nat_1) (y_11 Nat_1))
	(=> (lt_0 x_140 y_11)
	    (mod_0 x_140 x_140 y_11))))
(assert (forall ((x_140 Nat_1) (y_11 Nat_1) (r_0 Nat_1) (z_9 Nat_1))
	(=>	(and (ge_0 x_140 y_11)
			(minus_0 z_9 x_140 y_11)
			(mod_0 r_0 z_9 y_11))
		(mod_0 r_0 x_140 y_11))))
(declare-datatypes ((Nat_0 0)) (((zero_0 ) (succ_0 (p_0 Nat_0)))))
(declare-fun diseqNat_1 (Nat_0 Nat_0) Bool)
(declare-fun p_1 (Nat_0 Nat_0) Bool)
(declare-fun iszero_0 (Nat_0) Bool)
(declare-fun issucc_0 (Nat_0) Bool)
(assert (forall ((x_151 Nat_0) (x_150 Nat_0))
	(=> (= x_151 (succ_0 x_150))
	    (p_1 x_150 x_151))))
(assert (iszero_0 zero_0))
(assert (forall ((x_152 Nat_0))
	(issucc_0 (succ_0 x_152))))
(assert (forall ((x_153 Nat_0))
	(diseqNat_1 zero_0 (succ_0 x_153))))
(assert (forall ((x_154 Nat_0))
	(diseqNat_1 (succ_0 x_154) zero_0)))
(assert (forall ((x_155 Nat_0) (x_156 Nat_0))
	(=> (diseqNat_1 x_155 x_156)
	    (diseqNat_1 (succ_0 x_155) (succ_0 x_156)))))
(declare-fun plus_0 (Nat_0 Nat_0 Nat_0) Bool)
(assert (forall ((x_0 Nat_0) (y_0 Nat_0) (z_0 Nat_0) (x_22 Nat_0) (x_23 Nat_0))
	(=>	(and (= x_22 (succ_0 x_23))
			(plus_0 x_23 z_0 y_0)
			(= x_0 (succ_0 z_0)))
		(plus_0 x_22 x_0 y_0))))
(assert (forall ((x_0 Nat_0) (y_0 Nat_0) (x_24 Nat_0))
	(=>	(and (= x_24 y_0)
			(= x_0 zero_0))
		(plus_0 x_24 x_0 y_0))))
(declare-fun times_0 (Nat_0 Nat_0 Nat_0) Bool)
(assert (forall ((x_1 Nat_0) (y_1 Nat_0) (z_1 Nat_0) (x_25 Nat_0) (x_26 Nat_0) (x_27 Nat_0))
	(=>	(and (= x_25 x_27)
			(times_0 x_26 z_1 y_1)
			(plus_0 x_27 y_1 x_26)
			(= x_1 (succ_0 z_1)))
		(times_0 x_25 x_1 y_1))))
(assert (forall ((x_1 Nat_0) (y_1 Nat_0) (x_28 Nat_0))
	(=>	(and (= x_28 zero_0)
			(= x_1 zero_0))
		(times_0 x_28 x_1 y_1))))
(declare-fun addacc_0 (Nat_0 Nat_0 Nat_0 Nat_0) Bool)
(assert (forall ((x_2 Nat_0) (y_2 Nat_0) (z_2 Nat_0) (x_3 Nat_0) (x_29 Nat_0) (x_30 Nat_0))
	(=>	(and (= x_29 x_30)
			(addacc_0 x_30 x_3 (succ_0 y_2) z_2)
			(= x_2 (succ_0 x_3)))
		(addacc_0 x_29 x_2 y_2 z_2))))
(assert (forall ((x_2 Nat_0) (y_2 Nat_0) (z_2 Nat_0) (x_4 Nat_0) (x_31 Nat_0) (x_32 Nat_0))
	(=>	(and (= x_31 x_32)
			(addacc_0 x_32 zero_0 x_4 (succ_0 z_2))
			(= x_2 zero_0)
			(= y_2 (succ_0 x_4)))
		(addacc_0 x_31 x_2 y_2 z_2))))
(assert (forall ((x_2 Nat_0) (y_2 Nat_0) (z_2 Nat_0) (x_33 Nat_0))
	(=>	(and (= x_33 z_2)
			(= x_2 zero_0)
			(= y_2 zero_0))
		(addacc_0 x_33 x_2 y_2 z_2))))
(declare-fun mulacc_0 (Nat_0 Nat_0 Nat_0 Nat_0) Bool)
(assert (forall ((x_5 Nat_0) (y_3 Nat_0) (z_3 Nat_0) (x_6 Nat_0) (x_7 Nat_0) (x_8 Nat_0) (fail_0 Nat_0) (x_42 Nat_0) (x_34 Nat_0) (x_35 Nat_0) (x_36 Nat_0) (x_37 Nat_0) (x_38 Nat_0) (x_39 Nat_0) (x_40 Nat_0) (x_41 Nat_0))
	(=>	(and (= x_42 (succ_0 zero_0))
			(= x_5 (succ_0 x_6))
			(= y_3 (succ_0 x_7))
			(= z_3 (succ_0 x_8))
			(= fail_0 x_41)
			(= x_6 zero_0)
			(= x_7 zero_0)
			(= x_8 zero_0)
			(mulacc_0 x_34 x_6 x_7 x_8)
			(mulacc_0 x_35 (succ_0 zero_0) x_7 x_8)
			(mulacc_0 x_36 x_6 (succ_0 zero_0) x_8)
			(mulacc_0 x_37 x_6 x_7 (succ_0 zero_0))
			(addacc_0 x_38 x_35 x_36 x_37)
			(addacc_0 x_39 (succ_0 x_6) (succ_0 x_7) (succ_0 x_8))
			(addacc_0 x_40 x_34 x_38 x_39)
			(plus_0 x_41 (succ_0 zero_0) x_40))
		(mulacc_0 x_42 x_5 y_3 z_3))))
(assert (forall ((x_5 Nat_0) (y_3 Nat_0) (z_3 Nat_0) (x_6 Nat_0) (x_7 Nat_0) (x_8 Nat_0) (fail_0 Nat_0) (x_51 Nat_0) (x_43 Nat_0) (x_44 Nat_0) (x_45 Nat_0) (x_46 Nat_0) (x_47 Nat_0) (x_48 Nat_0) (x_49 Nat_0) (x_50 Nat_0))
	(=>	(and (= x_51 fail_0)
			(= x_5 (succ_0 x_6))
			(= y_3 (succ_0 x_7))
			(= z_3 (succ_0 x_8))
			(= fail_0 x_50)
			(diseqNat_1 x_6 zero_0)
			(mulacc_0 x_43 x_6 x_7 x_8)
			(mulacc_0 x_44 (succ_0 zero_0) x_7 x_8)
			(mulacc_0 x_45 x_6 (succ_0 zero_0) x_8)
			(mulacc_0 x_46 x_6 x_7 (succ_0 zero_0))
			(addacc_0 x_47 x_44 x_45 x_46)
			(addacc_0 x_48 (succ_0 x_6) (succ_0 x_7) (succ_0 x_8))
			(addacc_0 x_49 x_43 x_47 x_48)
			(plus_0 x_50 (succ_0 zero_0) x_49))
		(mulacc_0 x_51 x_5 y_3 z_3))))
(assert (forall ((x_5 Nat_0) (y_3 Nat_0) (z_3 Nat_0) (x_6 Nat_0) (x_7 Nat_0) (x_8 Nat_0) (fail_0 Nat_0) (x_60 Nat_0) (x_52 Nat_0) (x_53 Nat_0) (x_54 Nat_0) (x_55 Nat_0) (x_56 Nat_0) (x_57 Nat_0) (x_58 Nat_0) (x_59 Nat_0))
	(=>	(and (= x_60 fail_0)
			(= x_5 (succ_0 x_6))
			(= y_3 (succ_0 x_7))
			(= z_3 (succ_0 x_8))
			(= fail_0 x_59)
			(= x_6 zero_0)
			(diseqNat_1 x_7 zero_0)
			(mulacc_0 x_52 x_6 x_7 x_8)
			(mulacc_0 x_53 (succ_0 zero_0) x_7 x_8)
			(mulacc_0 x_54 x_6 (succ_0 zero_0) x_8)
			(mulacc_0 x_55 x_6 x_7 (succ_0 zero_0))
			(addacc_0 x_56 x_53 x_54 x_55)
			(addacc_0 x_57 (succ_0 x_6) (succ_0 x_7) (succ_0 x_8))
			(addacc_0 x_58 x_52 x_56 x_57)
			(plus_0 x_59 (succ_0 zero_0) x_58))
		(mulacc_0 x_60 x_5 y_3 z_3))))
(assert (forall ((x_5 Nat_0) (y_3 Nat_0) (z_3 Nat_0) (x_6 Nat_0) (x_7 Nat_0) (x_8 Nat_0) (fail_0 Nat_0) (x_69 Nat_0) (x_61 Nat_0) (x_62 Nat_0) (x_63 Nat_0) (x_64 Nat_0) (x_65 Nat_0) (x_66 Nat_0) (x_67 Nat_0) (x_68 Nat_0))
	(=>	(and (= x_69 fail_0)
			(= x_5 (succ_0 x_6))
			(= y_3 (succ_0 x_7))
			(= z_3 (succ_0 x_8))
			(= fail_0 x_68)
			(diseqNat_1 x_6 zero_0)
			(mulacc_0 x_61 x_6 x_7 x_8)
			(mulacc_0 x_62 (succ_0 zero_0) x_7 x_8)
			(mulacc_0 x_63 x_6 (succ_0 zero_0) x_8)
			(mulacc_0 x_64 x_6 x_7 (succ_0 zero_0))
			(addacc_0 x_65 x_62 x_63 x_64)
			(addacc_0 x_66 (succ_0 x_6) (succ_0 x_7) (succ_0 x_8))
			(addacc_0 x_67 x_61 x_65 x_66)
			(plus_0 x_68 (succ_0 zero_0) x_67))
		(mulacc_0 x_69 x_5 y_3 z_3))))
(assert (forall ((x_5 Nat_0) (y_3 Nat_0) (z_3 Nat_0) (x_6 Nat_0) (x_7 Nat_0) (x_8 Nat_0) (fail_0 Nat_0) (x_78 Nat_0) (x_70 Nat_0) (x_71 Nat_0) (x_72 Nat_0) (x_73 Nat_0) (x_74 Nat_0) (x_75 Nat_0) (x_76 Nat_0) (x_77 Nat_0))
	(=>	(and (= x_78 fail_0)
			(= x_5 (succ_0 x_6))
			(= y_3 (succ_0 x_7))
			(= z_3 (succ_0 x_8))
			(= fail_0 x_77)
			(= x_6 zero_0)
			(= x_7 zero_0)
			(diseqNat_1 x_8 zero_0)
			(mulacc_0 x_70 x_6 x_7 x_8)
			(mulacc_0 x_71 (succ_0 zero_0) x_7 x_8)
			(mulacc_0 x_72 x_6 (succ_0 zero_0) x_8)
			(mulacc_0 x_73 x_6 x_7 (succ_0 zero_0))
			(addacc_0 x_74 x_71 x_72 x_73)
			(addacc_0 x_75 (succ_0 x_6) (succ_0 x_7) (succ_0 x_8))
			(addacc_0 x_76 x_70 x_74 x_75)
			(plus_0 x_77 (succ_0 zero_0) x_76))
		(mulacc_0 x_78 x_5 y_3 z_3))))
(assert (forall ((x_5 Nat_0) (y_3 Nat_0) (z_3 Nat_0) (x_6 Nat_0) (x_7 Nat_0) (x_8 Nat_0) (fail_0 Nat_0) (x_87 Nat_0) (x_79 Nat_0) (x_80 Nat_0) (x_81 Nat_0) (x_82 Nat_0) (x_83 Nat_0) (x_84 Nat_0) (x_85 Nat_0) (x_86 Nat_0))
	(=>	(and (= x_87 fail_0)
			(= x_5 (succ_0 x_6))
			(= y_3 (succ_0 x_7))
			(= z_3 (succ_0 x_8))
			(= fail_0 x_86)
			(diseqNat_1 x_6 zero_0)
			(mulacc_0 x_79 x_6 x_7 x_8)
			(mulacc_0 x_80 (succ_0 zero_0) x_7 x_8)
			(mulacc_0 x_81 x_6 (succ_0 zero_0) x_8)
			(mulacc_0 x_82 x_6 x_7 (succ_0 zero_0))
			(addacc_0 x_83 x_80 x_81 x_82)
			(addacc_0 x_84 (succ_0 x_6) (succ_0 x_7) (succ_0 x_8))
			(addacc_0 x_85 x_79 x_83 x_84)
			(plus_0 x_86 (succ_0 zero_0) x_85))
		(mulacc_0 x_87 x_5 y_3 z_3))))
(assert (forall ((x_5 Nat_0) (y_3 Nat_0) (z_3 Nat_0) (x_6 Nat_0) (x_7 Nat_0) (x_8 Nat_0) (fail_0 Nat_0) (x_96 Nat_0) (x_88 Nat_0) (x_89 Nat_0) (x_90 Nat_0) (x_91 Nat_0) (x_92 Nat_0) (x_93 Nat_0) (x_94 Nat_0) (x_95 Nat_0))
	(=>	(and (= x_96 fail_0)
			(= x_5 (succ_0 x_6))
			(= y_3 (succ_0 x_7))
			(= z_3 (succ_0 x_8))
			(= fail_0 x_95)
			(= x_6 zero_0)
			(diseqNat_1 x_7 zero_0)
			(mulacc_0 x_88 x_6 x_7 x_8)
			(mulacc_0 x_89 (succ_0 zero_0) x_7 x_8)
			(mulacc_0 x_90 x_6 (succ_0 zero_0) x_8)
			(mulacc_0 x_91 x_6 x_7 (succ_0 zero_0))
			(addacc_0 x_92 x_89 x_90 x_91)
			(addacc_0 x_93 (succ_0 x_6) (succ_0 x_7) (succ_0 x_8))
			(addacc_0 x_94 x_88 x_92 x_93)
			(plus_0 x_95 (succ_0 zero_0) x_94))
		(mulacc_0 x_96 x_5 y_3 z_3))))
(assert (forall ((x_5 Nat_0) (y_3 Nat_0) (z_3 Nat_0) (x_6 Nat_0) (x_7 Nat_0) (x_8 Nat_0) (fail_0 Nat_0) (x_105 Nat_0) (x_97 Nat_0) (x_98 Nat_0) (x_99 Nat_0) (x_100 Nat_0) (x_101 Nat_0) (x_102 Nat_0) (x_103 Nat_0) (x_104 Nat_0))
	(=>	(and (= x_105 fail_0)
			(= x_5 (succ_0 x_6))
			(= y_3 (succ_0 x_7))
			(= z_3 (succ_0 x_8))
			(= fail_0 x_104)
			(diseqNat_1 x_6 zero_0)
			(mulacc_0 x_97 x_6 x_7 x_8)
			(mulacc_0 x_98 (succ_0 zero_0) x_7 x_8)
			(mulacc_0 x_99 x_6 (succ_0 zero_0) x_8)
			(mulacc_0 x_100 x_6 x_7 (succ_0 zero_0))
			(addacc_0 x_101 x_98 x_99 x_100)
			(addacc_0 x_102 (succ_0 x_6) (succ_0 x_7) (succ_0 x_8))
			(addacc_0 x_103 x_97 x_101 x_102)
			(plus_0 x_104 (succ_0 zero_0) x_103))
		(mulacc_0 x_105 x_5 y_3 z_3))))
(assert (forall ((x_5 Nat_0) (y_3 Nat_0) (z_3 Nat_0) (x_6 Nat_0) (x_7 Nat_0) (x_106 Nat_0))
	(=>	(and (= x_106 zero_0)
			(= x_5 (succ_0 x_6))
			(= y_3 (succ_0 x_7))
			(= z_3 zero_0))
		(mulacc_0 x_106 x_5 y_3 z_3))))
(assert (forall ((x_5 Nat_0) (y_3 Nat_0) (z_3 Nat_0) (x_6 Nat_0) (x_107 Nat_0))
	(=>	(and (= x_107 zero_0)
			(= x_5 (succ_0 x_6))
			(= y_3 zero_0))
		(mulacc_0 x_107 x_5 y_3 z_3))))
(assert (forall ((x_5 Nat_0) (y_3 Nat_0) (z_3 Nat_0) (x_108 Nat_0))
	(=>	(and (= x_108 zero_0)
			(= x_5 zero_0))
		(mulacc_0 x_108 x_5 y_3 z_3))))
(assert (forall ((x_9 Nat_0) (y_4 Nat_0) (z_4 Nat_0) (x_109 Nat_0) (x_110 Nat_0) (x_111 Nat_0))
	(=>	(and (diseqNat_1 x_109 x_111)
			(mulacc_0 x_109 x_9 y_4 z_4)
			(times_0 x_110 x_9 y_4)
			(times_0 x_111 x_110 z_4))
		false)))
(assert (forall ((x_10 Nat_0) (y_5 Nat_0) (z_5 Nat_0) (x_112 Nat_0) (x_113 Nat_0) (x_114 Nat_0) (x_115 Nat_0))
	(=>	(and (diseqNat_1 x_113 x_115)
			(times_0 x_112 y_5 z_5)
			(times_0 x_113 x_10 x_112)
			(times_0 x_114 x_10 y_5)
			(times_0 x_115 x_114 z_5))
		false)))
(assert (forall ((x_11 Nat_0) (y_6 Nat_0) (z_6 Nat_0) (x_116 Nat_0) (x_117 Nat_0) (x_118 Nat_0) (x_119 Nat_0))
	(=>	(and (diseqNat_1 x_117 x_119)
			(plus_0 x_116 y_6 z_6)
			(plus_0 x_117 x_11 x_116)
			(plus_0 x_118 x_11 y_6)
			(plus_0 x_119 x_118 z_6))
		false)))
(assert (forall ((x_12 Nat_0) (y_7 Nat_0) (x_120 Nat_0) (x_121 Nat_0))
	(=>	(and (diseqNat_1 x_120 x_121)
			(times_0 x_120 x_12 y_7)
			(times_0 x_121 y_7 x_12))
		false)))
(assert (forall ((x_13 Nat_0) (y_8 Nat_0) (x_122 Nat_0) (x_123 Nat_0))
	(=>	(and (diseqNat_1 x_122 x_123)
			(plus_0 x_122 x_13 y_8)
			(plus_0 x_123 y_8 x_13))
		false)))
(assert (forall ((x_14 Nat_0) (y_9 Nat_0) (z_7 Nat_0) (x_124 Nat_0) (x_125 Nat_0) (x_126 Nat_0) (x_127 Nat_0) (x_128 Nat_0))
	(=>	(and (diseqNat_1 x_125 x_128)
			(plus_0 x_124 y_9 z_7)
			(times_0 x_125 x_14 x_124)
			(times_0 x_126 x_14 y_9)
			(times_0 x_127 x_14 z_7)
			(plus_0 x_128 x_126 x_127))
		false)))
(assert (forall ((x_15 Nat_0) (y_10 Nat_0) (z_8 Nat_0) (x_129 Nat_0) (x_130 Nat_0) (x_131 Nat_0) (x_132 Nat_0) (x_133 Nat_0))
	(=>	(and (diseqNat_1 x_130 x_133)
			(plus_0 x_129 x_15 y_10)
			(times_0 x_130 x_129 z_8)
			(times_0 x_131 x_15 z_8)
			(times_0 x_132 y_10 z_8)
			(plus_0 x_133 x_131 x_132))
		false)))
(assert (forall ((x_16 Nat_0) (x_134 Nat_0))
	(=>	(and (diseqNat_1 x_134 x_16)
			(times_0 x_134 x_16 (succ_0 zero_0)))
		false)))
(assert (forall ((x_17 Nat_0) (x_135 Nat_0))
	(=>	(and (diseqNat_1 x_135 x_17)
			(times_0 x_135 (succ_0 zero_0) x_17))
		false)))
(assert (forall ((x_18 Nat_0) (x_136 Nat_0))
	(=>	(and (diseqNat_1 x_136 x_18)
			(plus_0 x_136 x_18 zero_0))
		false)))
(assert (forall ((x_19 Nat_0) (x_137 Nat_0))
	(=>	(and (diseqNat_1 x_137 x_19)
			(plus_0 x_137 zero_0 x_19))
		false)))
(assert (forall ((x_20 Nat_0) (x_138 Nat_0))
	(=>	(and (diseqNat_1 x_138 zero_0)
			(times_0 x_138 x_20 zero_0))
		false)))
(assert (forall ((x_21 Nat_0) (x_139 Nat_0))
	(=>	(and (diseqNat_1 x_139 zero_0)
			(times_0 x_139 zero_0 x_21))
		false)))
(check-sat)
